; benchmark generated from python API
(set-info :status unknown)
(declare-fun S_3 () Real)
(declare-fun C () Real)
(declare-fun L_2 () Real)
(declare-fun A_2 () Real)
(declare-fun S_4 () Real)
(declare-fun S_2 () Real)
(declare-fun A_3 () Real)
(declare-fun L_3 () Real)
(declare-fun S_1 () Real)
(declare-fun L_1 () Real)
(declare-fun A_1 () Real)
(declare-fun L_0 () Real)
(declare-fun S_0 () Real)
(declare-fun A_0 () Real)
(declare-fun A_4 () Real)
(assert
 (let (($x34 (>= L_0 0.0)))
 (let (($x651 (>= C 5.0)))
 (let (($x71 (= L_3 L_2)))
 (let (($x11526 (or $x71 (<= (+ L_3 (* (- 1.0) A_3) S_4 (* (- 1.0) C)) (- 5.0)))))
 (let ((?x254 (* (- 1.0) L_2)))
 (let ((?x369 (* (- 1.0) A_3)))
 (let ((?x2715 (+ L_3 ?x369 A_2 ?x254 C)))
 (let (($x10545 (<= ?x2715 (- 5.0))))
 (let (($x11487 (or $x71 $x10545 (<= (+ L_3 ?x369 (* 3.0 C) S_0) (- 5.0)) (<= (+ L_3 ?x369 (* (- 1.0) L_1) A_1 (* 2.0 C)) (- 5.0)))))
 (let (($x2710 (<= (+ A_2 ?x254 (* (- 1.0) S_3)) 0.0)))
 (let (($x1352 (<= (+ A_1 C (* (- 1.0) S_3) (* (- 1.0) L_1)) 0.0)))
 (let (($x11474 (or $x1352 $x2710 (not (<= 0.0 (+ (* 2.0 C) (* (- 1.0) A_2) S_0 L_2))))))
 (let (($x61 (= L_2 L_1)))
 (let (($x18399 (or $x61 (<= (+ S_4 (* (- 1.0) A_2) (* (- 2.0) C) L_2) (- 5.0)))))
 (let (($x51 (= L_1 L_0)))
 (let (($x18797 (or $x51 (<= (+ S_4 (* (- 1.0) A_1) (* (- 3.0) C) L_1) (- 5.0)))))
 (let (($x18408 (or $x51 (<= (+ (* (- 2.0) C) (* (- 1.0) A_1) S_3 L_1) (- 5.0)))))
 (let ((?x364 (* (- 1.0) A_1)))
 (let ((?x295 (* (- 1.0) C)))
 (let ((?x366 (* (- 1.0) A_2)))
 (let ((?x271 (* (- 1.0) L_3)))
 (let (($x18640 (or $x51 (<= (+ ?x271 A_3 ?x366 L_2 ?x295 ?x364 S_1 L_1) 0.0))))
 (let ((?x966 (* (- 2.0) C)))
 (let ((?x1394 (+ ?x271 A_3 ?x364 ?x966 L_1)))
 (let (($x10432 (<= 0.0 ?x1394)))
 (let ((?x237 (* (- 1.0) L_1)))
 (let ((?x344 (* (- 1.0) S_2)))
 (let (($x18483 (or $x71 (<= (+ L_3 ?x369 A_2 ?x254 C A_1 ?x344 ?x237) 0.0) $x10432)))
 (let (($x18450 (or $x71 (<= (+ L_3 ?x369 A_2 ?x254 A_1 (* (- 1.0) S_1) ?x237) 0.0) $x10432)))
 (let (($x3078 (<= (+ L_3 ?x369 A_2 ?x254 ?x295 A_1 (* (- 1.0) S_0) ?x237) 0.0)))
 (let (($x3103 (<= (+ L_3 ?x369 A_2 ?x254 A_1 (* (- 1.0) A_0) ?x237 L_0) 0.0)))
 (let ((?x905 (* 2.0 C)))
 (let ((?x1987 (+ ?x905 ?x366 S_0 L_2)))
 (let (($x9786 (<= 0.0 ?x1987)))
 (let (($x10580 (or $x61 (<= (+ ?x366 A_1 C ?x237 L_2) (- 5.0)) (<= ?x1987 (- 5.0)))))
 (let ((?x756 (+ L_1 ?x254)))
 (let (($x432 (<= 0.0 ?x756)))
 (let (($x108 (>= S_1 S_0)))
 (let (($x111 (>= S_2 S_1)))
 (let (($x114 (>= S_3 S_2)))
 (let (($x119 (>= A_1 A_0)))
 (let (($x120 (>= A_2 A_1)))
 (let (($x121 (>= A_3 A_2)))
 (and (<= (+ A_3 ?x271) S_4) $x121 $x120 $x119 $x114 $x111 $x108 (or (not (<= 0.0 (+ ?x237 L_0))) $x51) (or (not $x432) $x61) (or $x51 (<= 0.0 (+ ?x366 A_1 C ?x237 L_2))) (or $x71 (not (<= 0.0 (+ ?x271 L_2)))) (or $x71 $x432 (= (+ L_3 ?x369 C A_2 ?x254) 0.0)) (<= (+ ?x364 ?x295 S_2 L_1) 0.0) (or $x61 (<= (+ ?x366 S_2 L_2) (- 5.0))) (<= (+ ?x295 (* (- 1.0) A_0) S_1 L_0) 0.0) (or $x71 (<= (+ L_3 ?x369 C A_2 ?x237) 0.0) (not $x61)) (or (<= (+ C (* (- 1.0) S_3) S_1) 0.0) $x2710) (or $x51 (<= (+ ?x364 S_1 L_1) (- 5.0))) (or $x61 (<= 0.0 ?x2715)) (or (<= (+ A_1 ?x344 ?x237) 0.0) (<= (+ C ?x344 S_0) 0.0)) (or $x71 $x10432 $x10545) (or $x61 (<= (+ ?x366 A_1 ?x237 C L_2) 0.0)) (or $x71 (<= (+ L_3 ?x369 S_3) (- 5.0))) (or $x61 (<= (+ C ?x366 S_1 L_2) (- 5.0))) $x10580 (or $x1352 (<= (+ ?x905 (* (- 1.0) S_3) S_0) 0.0) $x9786) (or $x61 (<= (+ ?x295 ?x366 S_3 L_2) (- 5.0))) (<= (+ ?x966 S_1 (* (- 1.0) S_0)) 0.0) (or $x71 $x2710 $x10432) (or $x51 (<= (+ ?x295 ?x364 S_2 L_1) (- 5.0))) (or $x51 (<= ?x1394 0.0)) (or $x71 $x3103 $x10432) (or $x71 $x3078 $x10432) (<= (+ ?x366 L_2 S_2) 0.0) $x18450 $x18483 (<= (+ ?x966 S_2 (* (- 1.0) S_1)) 0.0) (<= (+ ?x966 (* (- 1.0) A_0) S_2 L_0) 0.0) (or $x51 (<= (+ ?x271 A_3 ?x366 L_2 ?x364 S_0 L_1) 0.0)) (<= (+ (* (- 3.0) C) S_2 (* (- 1.0) S_0)) 0.0) $x18640 (<= (+ (* (- 3.0) C) S_3 (* (- 1.0) S_1)) 0.0) (<= (+ (* (- 3.0) C) (* (- 1.0) A_0) S_3 L_0) 0.0) (or $x51 (<= (+ C ?x364 S_0 L_1) (- 5.0))) (<= (+ S_4 ?x366 L_2 ?x966) 0.0) (<= (+ S_4 (* (- 5.0) C) (* (- 1.0) S_0)) 0.0) (<= (+ L_3 ?x369 S_4 ?x295) 0.0) (<= (+ L_1 ?x364 ?x966 S_3) 0.0) (<= (+ ?x966 S_3 ?x344) 0.0) $x18408 (<= (+ (* (- 4.0) C) S_3 (* (- 1.0) S_0)) 0.0) $x18797 (<= (+ S_4 (* (- 1.0) A_0) (* (- 4.0) C) L_0) 0.0) (<= (+ S_4 (* (- 4.0) C) (* (- 1.0) S_1)) 0.0) $x18399 $x11474 $x11487 (or $x71 (<= (+ L_3 ?x369 ?x905 S_1) (- 5.0)) $x10545) (or $x71 (<= (+ L_3 ?x369 C S_2) (- 5.0))) $x11526 (<= (+ S_4 L_1 ?x364 (* (- 3.0) C)) 0.0) $x651 $x34 (not (>= (+ L_3 S_4 (* (- 1.0) A_4)) 0.0)) (<= (+ (* (- 1.0) A_0) S_0 L_0) 0.0) (<= (+ ?x364 L_1 S_1) 0.0) (<= (+ L_3 ?x369 S_3) 0.0) (<= (+ S_4 (* (- 3.0) C) ?x344) 0.0) (<= (+ S_4 ?x966 (* (- 1.0) S_3)) 0.0) (<= (+ ?x366 L_2 ?x295 S_3) 0.0))))))))))))))))))))))))))))))))))))))))))))))
(check-sat)
